p cnf 1149 1313
c ind 764 765 766 779 786 812 873 874 887 894 0
c ind 898 900 903 919 921 924 936 937 956 958 0
c ind 962 973 974 978 979 980 984 986 757 872 0
c ind 787 799 758 759 871 762 763 870 1102 1103 0
c ind 1101 1100 1098 1134 1116 1125 1139 1099 1120 1130 0
c ind 1147 1133 1115 1124 1138 1119 1129 1146 1097 1092 0
c ind 1096 1095 1094 1132 1114 1123 1137 1118 1128 1145 0
c ind 1093 1131 1113 1122 1136 1117 1127 1144 1108 1112 0
c ind 1142 1090 1091 1089 1084 1088 1087 1086 1110 1140 0
c ind 1085 1111 1141 1121 1135 1126 1143 1082 1083 760 0
c ind 761 1075 1076 1081 1080 1079 1078 1077 1073 1074 0
c ind 1072 1109 1071 1069 1070 1105 1068 1063 1067 1066 0
c ind 1065 1064 1106 1061 1062 1060 1055 1059 1058 1057 0
c ind 1056 1053 1054 1046 1047 1052 1051 1050 1049 1048 0
c ind 1044 1045 1043 1042 1107 1040 1041 1039 1104 1034 0
c ind 1038 1037 1036 1035 1032 1033 1031 1026 1030 1029 0
c ind 1028 1027 1024 1025 1017 1018 1023 1022 1021 1020 0
c ind 1019 1015 1016 1014 1013 1011 1012 1010 1005 1009 0
c ind 1008 1007 1006 1003 1004 1002 997 1001 1000 999 0
c ind 998 995 996 988 989 994 993 992 991 990 0
c ind 968 969 967 966 965 987 977 975 976 964 0
c ind 963 985 972 961 983 981 982 970 971 960 0
c ind 959 952 957 955 953 954 951 944 943 950 0
c ind 949 948 947 946 945 942 941 940 939 938 0
c ind 756 931 930 928 929 927 926 932 933 925 0
c ind 923 934 922 935 920 918 916 917 915 914 0
c ind 913 912 911 910 769 909 907 908 906 905 0
c ind 877 904 902 901 899 897 895 896 893 888 0
c ind 892 889 890 884 891 886 882 883 885 881 0
c ind 876 880 878 879 875 869 862 854 868 867 0
c ind 866 865 848 847 846 864 845 863 844 843 0
c ind 842 861 860 859 858 857 856 855 853 852 0
c ind 851 850 849 841 834 826 840 839 838 837 0
c ind 820 819 818 836 817 835 816 815 814 833 0
c ind 832 831 830 829 828 827 825 824 823 822 0
c ind 821 813 811 809 810 800 801 808 807 806 0
c ind 805 804 802 803 796 795 797 798 794 793 0
c ind 792 791 789 790 788 785 784 780 781 782 0
c ind 783 776 778 775 774 777 768 773 767 772 0
c ind 770 771 1 0
c ret 611 612 613 614 615 616 617 618 619 620 0
c ret 621 622 623 624 625 626 627 628 629 630 0
c ret 631 632 633 634 635 636 637 638 639 640 0
c ret 641 642 643 644 645 646 647 648 649 650 0
c ret 651 652 653 654 655 656 657 658 659 660 0
c ret 661 662 663 664 665 666 667 668 669 670 0
c ret 671 672 673 674 675 676 677 678 679 680 0
c ret 681 682 683 684 685 686 687 688 689 690 0
c ret 691 692 693 694 695 696 697 698 699 700 0
c ret 701 702 703 704 705 706 707 708 709 710 0
c ret 711 712 713 714 715 716 717 718 719 720 0
c ret 306 312 313 314 315 316 317 721 318 722 0
c ret 319 320 321 723 322 724 323 324 325 326 0
c ret 327 328 329 330 331 332 333 334 335 725 0
c ret 336 726 337 727 338 728 339 340 341 342 0
c ret 343 344 345 346 347 348 307 729 349 350 0
c ret 351 352 353 730 731 354 355 732 356 733 0
c ret 357 358 359 360 361 362 363 734 364 365 0
c ret 366 367 368 369 735 370 736 371 372 373 0
c ret 374 737 738 375 376 377 378 379 380 381 0
c ret 382 383 384 385 386 387 388 389 739 308 0
c ret 390 740 391 741 742 392 393 394 395 396 0
c ret 397 398 399 400 401 402 743 403 404 405 0
c ret 406 407 408 744 409 745 410 411 746 747 0
c ret 412 413 414 415 416 417 418 419 748 749 0
c ret 420 421 422 750 423 424 425 426 427 428 0
c ret 429 309 430 431 432 433 434 435 436 437 0
c ret 751 438 439 440 752 441 753 442 443 754 0
c ret 755 444 445 446 447 448 449 450 451 452 0
c ret 453 454 455 456 457 458 459 460 461 462 0
c ret 463 464 465 466 467 468 469 470 471 472 0
c ret 473 474 475 476 477 478 479 480 481 482 0
c ret 483 484 485 486 487 488 489 490 491 492 0
c ret 493 494 495 496 497 498 499 500 310 501 0
c ret 502 503 504 505 506 507 508 509 510 511 0
c ret 512 513 514 515 516 517 518 519 520 521 0
c ret 522 523 524 525 526 527 528 529 530 531 0
c ret 532 533 534 535 536 537 538 539 311 540 0
c ret 541 542 543 544 545 546 547 548 549 550 0
c ret 551 552 553 554 555 556 557 558 559 560 0
c ret 561 562 563 564 565 566 567 568 569 570 0
c ret 571 572 573 574 575 576 577 578 579 580 0
c ret 581 582 583 584 585 586 587 588 589 590 0
c ret 591 592 593 594 595 596 597 598 599 600 0
c ret 601 602 603 604 605 606 607 608 609 610 0
2 139 301 -302 0
2 3 301 -302 0
-2 302 0
-2 -301 0
-2 -3 -139 0
3 -4 -64 -129 0
3 4 64 119 0
3 4 64 -129 0
3 -4 -64 119 0
-3 4 -64 0
-3 -4 64 0
-3 -119 129 0
4 -5 -21 0
4 -5 58 0
-4 5 0
-4 21 -58 0
5 6 -12 0
-5 -6 0
-5 12 0
6 -8 -9 0
6 -7 -9 0
-6 9 0
-6 7 8 0
7 988 0
7 -989 -995 0
7 989 -996 0
-7 -988 989 996 0
-7 -988 -989 995 0
-7 8 0
8 -997 1003 0
8 997 1004 0
7 -8 -997 -1003 0
7 -8 997 -1004 0
9 -10 -11 0
-7 9 -11 0
-9 11 0
7 -9 10 0
-7 10 0
10 997 -1004 0
10 -997 -1003 0
7 -10 -997 1003 0
7 -10 997 1004 0
11 988 0
11 -989 995 0
11 989 996 0
-11 -988 989 -996 0
-11 -988 -989 -995 0
12 -13 14 0
12 -13 15 16 0
-12 13 0
-12 -14 -15 0
-12 -14 -16 0
13 -1046 -1075 0
-13 1046 0
-13 1075 0
14 1017 0
14 -1018 1024 0
14 1018 1025 0
-14 -1017 1018 -1025 0
-14 -1017 -1018 -1024 0
15 1017 0
15 -1018 -1024 0
15 1018 -1025 0
-15 -1017 1018 1025 0
-15 -1017 -1018 1024 0
16 -17 -18 -20 0
-16 17 0
-16 18 0
-16 20 0
17 1026 1033 0
17 -1026 1032 0
-17 -1026 -1032 0
-17 1026 -1033 0
18 19 0
18 -1034 1040 0
18 1034 1041 0
-18 -19 -1034 -1040 0
-18 -19 1034 -1041 0
15 -17 19 0
-15 -19 0
17 -19 0
19 20 0
20 1034 -1041 0
20 -1034 -1040 0
-19 -20 1034 1041 0
-19 -20 -1034 1040 0
21 -22 -57 -1125 0
21 22 -23 -57 0
-21 57 0
-21 -22 1125 0
-21 22 23 0
22 983 -985 0
-22 -983 0
-22 985 0
23 -24 -1124 0
23 24 -25 0
-23 -24 1124 0
-23 24 25 0
24 955 -957 0
-24 -955 0
-24 957 0
25 26 49 56 0
25 26 49 -52 0
-25 -26 0
-25 -49 0
-25 52 -56 0
26 -47 756 -931 0
26 27 756 931 0
-26 -756 0
-26 47 -931 0
-26 -27 931 0
27 -28 -1121 0
-27 1121 0
-27 28 0
28 -29 43 0
-28 29 0
-28 -43 0
29 -36 37 0
29 30 37 -821 0
-29 -37 0
-29 -30 36 0
-29 36 821 0
30 31 0
30 34 -820 0
30 34 826 0
-30 -31 -34 0
-30 -31 820 -826 0
31 -32 33 -814 -821 0
-31 32 0
-31 -33 0
-31 814 0
-31 821 0
32 815 816 817 0
-32 -815 0
-32 -817 0
-32 -816 0
33 818 -819 0
-33 -818 0
-33 819 0
34 35 820 826 -827 0
-34 -820 0
-34 -35 0
-34 827 0
-34 -826 0
35 834 835 0
-35 -834 0
-35 -835 0
32 36 -814 0
33 36 -814 -820 0
-36 814 0
-32 -36 820 0
-32 -33 -36 0
37 39 42 0
37 39 -41 0
37 38 39 0
-37 -39 0
-37 -38 41 -42 0
38 843 844 845 0
-38 -843 0
-38 -845 0
-38 -844 0
38 39 -842 0
39 40 -842 -848 0
-39 842 0
-38 -39 848 0
-38 -39 -40 0
40 846 -847 0
-40 -846 0
-40 847 0
41 854 855 0
41 854 862 863 0
-41 -854 0
-41 -855 -862 0
-41 -855 -863 0
40 42 -842 848 -849 0
-42 849 0
-40 -42 0
-42 842 0
-42 -848 0
43 -44 -788 0
43 -46 -788 0
43 -45 -788 0
-43 788 0
-43 44 45 46 0
44 -789 790 791 0
-44 789 0
-44 -791 0
-44 -790 0
45 794 797 798 0
-45 -794 0
-45 -798 0
-45 -797 0
46 -794 795 796 0
-46 794 0
-46 -796 0
-46 -795 0
47 -48 1122 0
27 47 48 0
-47 -48 -1122 0
-27 -47 48 0
48 897 -899 0
-48 -897 0
-48 899 0
49 -50 -51 -941 0
49 -50 -51 -942 0
-49 51 0
-49 50 0
-49 941 942 0
50 944 945 946 947 0
-50 -947 0
-50 -946 0
-50 -944 0
-50 -945 0
51 -938 -939 -940 943 0
-51 940 0
-51 -943 0
-51 938 0
-51 939 0
47 52 -53 0
-47 -52 0
-52 53 0
53 54 55 0
-53 -54 0
-53 -55 0
54 918 -920 0
-54 -918 0
-54 920 0
55 910 911 912 0
-55 -910 0
-55 -912 0
-55 -911 0
54 56 -756 0
56 -756 1123 0
-56 756 0
-54 -56 -1123 0
57 -952 959 0
-57 952 0
-57 -959 0
58 -59 -952 0
23 25 58 0
23 58 -952 0
25 58 -59 0
-25 -58 952 0
-23 -58 59 0
59 61 959 0
59 -60 61 0
59 61 952 0
-59 -61 0
-59 60 -952 -959 0
60 -960 961 0
-60 960 0
-60 -961 0
61 62 -63 0
-61 -62 0
-61 63 0
62 963 -964 -965 966 0
-62 -963 0
-62 -966 0
-62 965 0
-62 964 0
63 -952 -959 -960 961 0
-63 960 0
-63 -961 0
-63 952 0
-63 959 0
64 -65 -74 0
64 -65 113 0
-64 65 0
-64 74 -113 0
65 66 -72 0
-65 -66 0
-65 72 0
66 -68 -69 0
66 -67 -69 0
-66 69 0
-66 67 68 0
67 538 0
67 -539 -545 0
67 539 -546 0
-67 -538 539 546 0
-67 -538 -539 545 0
-67 68 0
68 -547 553 0
68 547 554 0
67 -68 -547 -553 0
67 -68 547 -554 0
-67 69 -70 0
69 -70 -71 0
-69 70 0
67 -69 71 0
70 538 0
70 -539 545 0
70 539 546 0
-70 -538 539 -546 0
-70 -538 -539 -545 0
-67 71 0
71 547 -554 0
71 -547 -553 0
67 -71 -547 553 0
67 -71 547 554 0
72 -73 -567 -596 -683 0
-72 73 0
-72 567 0
-72 683 0
-72 596 0
73 -625 -654 0
-73 625 0
-73 654 0
74 -75 -112 -733 0
74 75 -76 -112 0
-74 112 0
-74 -75 733 0
-74 75 76 0
75 533 -535 0
-75 -533 0
-75 535 0
76 -77 -732 0
76 77 -78 0
-76 -77 732 0
-76 77 78 0
77 505 -507 0
-77 -505 0
-77 507 0
78 79 104 111 0
78 79 104 -107 0
-78 -79 0
-78 -104 0
-78 107 -111 0
79 -102 306 -481 0
79 80 306 481 0
-79 -306 0
-79 102 -481 0
-79 -80 481 0
80 -81 -729 0
-80 729 0
-80 81 0
81 82 -86 0
-81 -82 0
-81 86 0
82 -83 -338 0
82 -85 -338 0
82 -84 -338 0
-82 338 0
-82 83 84 85 0
83 -339 340 341 0
-83 339 0
-83 -341 0
-83 -340 0
84 344 347 348 0
-84 -344 0
-84 -348 0
-84 -347 0
85 -344 345 346 0
-85 344 0
-85 -346 0
-85 -345 0
86 87 -94 0
86 87 97 -371 0
-86 -87 0
-86 94 -97 0
-86 94 371 0
87 -88 91 0
87 91 392 0
-87 -91 0
-87 88 -392 0
88 -90 395 398 0
88 -89 -90 395 0
-88 -395 0
-88 90 0
-88 89 -398 0
89 396 -397 0
-89 -396 0
-89 397 0
90 393 394 0
-90 -393 0
-90 -394 0
89 -90 91 92 -93 0
90 -91 0
-91 -92 0
-89 -91 0
-91 93 0
92 404 405 0
92 404 412 413 0
-92 -404 0
-92 -405 -412 0
-92 -405 -413 0
93 -392 395 398 -399 0
-93 399 0
-93 -398 0
-93 392 0
-93 -395 0
94 95 -364 0
94 96 -364 -370 0
-94 364 0
-94 -95 370 0
-94 -95 -96 0
95 365 366 367 0
-95 -365 0
-95 -367 0
-95 -366 0
96 368 -369 0
-96 -368 0
-96 369 0
97 98 101 0
-97 -98 0
-97 -101 0
98 -99 -100 -384 0
98 -99 -100 -385 0
-98 100 0
-98 99 0
-98 384 385 0
-95 96 99 -364 -371 0
95 -99 0
-96 -99 0
-99 364 0
-99 371 0
100 370 376 -377 0
-100 377 0
-100 -376 0
-100 -370 0
-99 101 370 -376 0
99 -101 0
-101 376 0
-101 -370 0
102 -103 730 0
80 102 103 0
-102 -103 -730 0
-80 -102 103 0
103 447 -449 0
-103 -447 0
-103 449 0
104 -105 -106 -491 0
104 -105 -106 -492 0
-104 106 0
-104 105 0
-104 491 492 0
105 494 495 496 497 0
-105 -497 0
-105 -496 0
-105 -494 0
-105 -495 0
106 -488 -489 -490 493 0
-106 490 0
-106 -493 0
-106 488 0
-106 489 0
102 107 -108 0
-102 -107 0
-107 108 0
108 109 110 0
-108 -109 0
-108 -110 0
109 460 461 462 0
-109 -460 0
-109 -462 0
-109 -461 0
110 468 -470 0
-110 -468 0
-110 470 0
110 111 -306 0
111 -306 731 0
-111 306 0
-110 -111 -731 0
112 -502 509 0
-112 502 0
-112 -509 0
113 -114 -502 0
76 78 113 0
76 113 -502 0
78 113 -114 0
-78 -113 502 0
-76 -113 114 0
114 116 509 0
114 -115 116 0
114 116 502 0
-114 -116 0
-114 115 -502 -509 0
115 -510 511 0
-115 510 0
-115 -511 0
116 117 -118 0
-116 -117 0
-116 118 0
117 513 -514 -515 516 0
-117 -513 0
-117 -516 0
-117 515 0
-117 514 0
118 -502 -509 -510 511 0
-118 510 0
-118 -511 0
-118 502 0
-118 509 0
-5 119 -120 0
-5 119 128 0
5 -119 0
-119 120 -128 0
22 -57 120 -121 0
-22 -57 120 -1147 0
57 -120 0
22 -120 121 0
-22 -120 1147 0
-24 121 -1146 0
24 121 -122 0
-24 -121 1146 0
24 -121 122 0
49 122 123 127 0
49 122 123 -126 0
-49 -122 0
-122 -123 0
-122 126 -127 0
123 -125 756 -931 0
123 124 756 931 0
-123 -756 0
-123 125 -931 0
-123 -124 931 0
-28 124 -1143 0
-124 1143 0
28 -124 0
-48 125 1144 0
48 124 125 0
-48 -125 -1144 0
48 -124 -125 0
-53 125 126 0
53 -126 0
-125 -126 0
54 127 -756 0
127 -756 1145 0
-127 756 0
-54 -127 -1145 0
-59 122 128 0
121 128 -952 0
-59 128 -952 0
121 122 128 0
59 -121 -128 0
-122 -128 952 0
-65 129 -130 0
-65 129 138 0
65 -129 0
-129 130 -138 0
75 -112 130 -131 0
-75 -112 130 -755 0
112 -130 0
75 -130 131 0
-75 -130 755 0
-77 131 -754 0
77 131 -132 0
-77 -131 754 0
77 -131 132 0
104 132 133 137 0
104 132 133 -136 0
-104 -132 0
-132 -133 0
-132 136 -137 0
133 -135 306 -481 0
133 134 306 481 0
-133 -306 0
-133 135 -481 0
-133 -134 481 0
-81 134 -751 0
-134 751 0
81 -134 0
-103 135 752 0
103 134 135 0
-103 -135 -752 0
103 -134 -135 0
-108 135 136 0
108 -136 0
-135 -136 0
110 137 -306 0
137 -306 753 0
-137 306 0
-110 -137 -753 0
-114 132 138 0
131 138 -502 0
-114 138 -502 0
131 132 138 0
114 -131 -138 0
-132 -138 502 0
139 140 149 -158 -280 0
139 -140 -149 -158 -280 0
-139 280 0
-139 -140 149 0
-139 158 0
-139 140 -149 0
-5 140 -141 0
-5 140 148 0
5 -140 0
-140 141 -148 0
22 -57 141 -142 0
-22 -57 141 -1120 0
57 -141 0
22 -141 142 0
-22 -141 1120 0
-24 142 -1119 0
24 142 -143 0
-24 -142 1119 0
24 -142 143 0
49 143 144 147 0
49 143 144 -146 0
-49 -143 0
-143 -144 0
-143 146 -147 0
144 -145 756 -931 0
28 144 756 931 0
-144 -756 0
-144 145 -931 0
-28 -144 931 0
-48 145 1117 0
28 48 145 0
-48 -145 -1117 0
-28 48 -145 0
-53 145 146 0
53 -146 0
-145 -146 0
54 147 -756 0
147 -756 1118 0
-147 756 0
-54 -147 -1118 0
-59 143 148 0
142 148 -952 0
-59 148 -952 0
142 143 148 0
59 -142 -148 0
-143 -148 952 0
-65 149 -150 0
-65 149 157 0
65 -149 0
-149 150 -157 0
75 -112 150 -151 0
-75 -112 150 -728 0
112 -150 0
75 -150 151 0
-75 -150 728 0
-77 151 -727 0
77 151 -152 0
-77 -151 727 0
77 -151 152 0
104 152 153 156 0
104 152 153 -155 0
-104 -152 0
-152 -153 0
-152 155 -156 0
153 -154 306 -481 0
81 153 306 481 0
-153 -306 0
-153 154 -481 0
-81 -153 481 0
-103 154 725 0
81 103 154 0
-103 -154 -725 0
-81 103 -154 0
-108 154 155 0
108 -155 0
-154 -155 0
110 156 -306 0
156 -306 726 0
-156 306 0
-110 -156 -726 0
-114 152 157 0
151 157 -502 0
-114 157 -502 0
151 152 157 0
114 -151 -157 0
-152 -157 502 0
158 159 172 -185 -241 0
158 -159 -172 -185 -241 0
-158 241 0
-158 -159 172 0
-158 185 0
-158 159 -172 0
-5 159 -160 0
-5 159 -170 0
-5 159 -169 0
5 -159 0
-159 160 169 170 0
160 163 -164 0
-53 160 161 -164 0
-160 164 0
-160 -161 -163 0
53 -160 -163 0
-48 161 1127 0
48 161 162 0
-48 -161 -1127 0
48 -161 -162 0
-28 162 -1126 0
-162 1126 0
28 -162 0
54 163 -756 0
163 -756 1128 0
-163 756 0
-54 -163 -1128 0
164 165 -166 0
-164 -165 0
-164 166 0
-161 165 756 -931 0
162 165 756 931 0
-165 -756 0
161 -165 -931 0
-162 -165 931 0
49 166 167 0
-49 -166 0
-166 -167 0
-24 167 -952 0
167 -168 -952 0
-167 952 0
24 -167 168 0
-22 61 168 959 0
-60 61 168 -959 0
-61 -168 0
60 -168 -959 0
22 -168 959 0
-22 -57 169 -1130 0
-169 1130 0
22 -169 0
57 -169 0
-24 170 -171 -1129 0
-170 1129 0
24 -170 0
-170 171 0
168 171 -952 0
-171 952 0
-168 -171 0
-65 172 -173 0
-65 172 -183 0
-65 172 -182 0
65 -172 0
-172 173 182 183 0
173 176 -177 0
-108 173 174 -177 0
-173 177 0
-173 -174 -176 0
108 -173 -176 0
-103 174 735 0
103 174 175 0
-103 -174 -735 0
103 -174 -175 0
-81 175 -734 0
-175 734 0
81 -175 0
110 176 -306 0
176 -306 736 0
-176 306 0
-110 -176 -736 0
177 178 -179 0
-177 -178 0
-177 179 0
-174 178 306 -481 0
175 178 306 481 0
-178 -306 0
174 -178 -481 0
-175 -178 481 0
104 179 180 0
-104 -179 0
-179 -180 0
-77 180 -502 0
180 -181 -502 0
-180 502 0
77 -180 181 0
-75 116 181 509 0
-115 116 181 -509 0
-116 -181 0
115 -181 -509 0
75 -181 509 0
-75 -112 182 -738 0
-182 738 0
75 -182 0
112 -182 0
-77 183 -184 -737 0
-183 737 0
77 -183 0
-183 184 0
181 184 -502 0
-184 502 0
-181 -184 0
185 186 200 -215 228 0
185 -186 -200 -215 228 0
-185 -228 0
-185 -186 200 0
-185 215 0
-185 186 -200 0
186 -191 756 0
55 186 187 -191 0
-186 191 0
-186 -187 -756 0
-55 -186 -756 0
187 188 -875 0
187 -190 875 1112 0
-187 -188 -875 0
-187 190 875 0
-187 875 -1112 0
-29 188 -189 0
29 -188 0
-188 189 0
189 -1104 -1106 0
43 189 1104 0
189 -1104 -1110 0
-43 -189 1104 0
-189 -1104 1106 1110 0
-29 190 -1104 1106 0
-190 1104 0
-190 -1106 0
29 -190 0
187 191 193 -197 0
191 -192 193 -197 0
-191 197 0
-191 -193 0
-187 -191 192 0
192 931 932 0
-192 -931 0
-192 -932 0
-187 193 194 0
188 193 -195 0
-187 188 193 0
193 194 -195 0
187 -193 195 0
-188 -193 -194 0
194 933 934 935 0
-194 -933 0
-194 -935 0
-194 -934 0
195 -196 756 0
-195 -756 0
-195 196 0
-194 196 931 932 0
194 -196 0
-196 -932 0
-196 -931 0
9 -12 197 -198 0
-12 197 -198 -199 0
-197 198 0
12 -197 0
-9 -197 199 0
49 63 198 0
49 62 198 0
-49 -198 0
-62 -63 -198 0
8 199 -988 0
-199 988 0
-8 -199 0
200 -205 306 0
109 200 201 -205 0
-200 205 0
-200 -201 -306 0
-109 -200 -306 0
201 202 -425 0
-86 201 -204 425 0
-201 -202 -425 0
86 -201 425 0
-201 204 425 0
-86 202 -203 0
86 -202 0
-202 203 0
203 -712 -714 0
82 203 712 0
203 -712 -718 0
-82 -203 712 0
-203 -712 714 718 0
204 -712 714 720 0
-204 712 0
-204 -720 0
-204 -714 0
201 205 207 -211 0
205 -206 207 -211 0
-205 211 0
-205 -207 0
-201 -205 206 0
206 481 482 0
-206 -481 0
-206 -482 0
-201 207 208 0
202 207 -209 0
-201 202 207 0
207 208 -209 0
201 -207 209 0
-202 -207 -208 0
208 483 484 485 0
-208 -483 0
-208 -485 0
-208 -484 0
209 -210 306 0
-209 -306 0
-209 210 0
-208 210 481 482 0
208 -210 0
-210 -482 0
-210 -481 0
69 211 -212 0
68 211 -212 -538 0
-211 212 0
-68 -69 -211 0
-69 -211 538 0
212 -213 -214 0
-212 213 0
-212 214 0
104 118 213 0
104 117 213 0
-104 -213 0
-117 -118 -213 0
-73 214 -567 -596 -683 0
73 -214 0
-214 567 0
-214 683 0
-214 596 0
215 216 219 220 -222 0
215 -216 -219 220 -222 0
-215 -220 0
-215 216 -219 0
-215 222 0
-215 -216 219 0
-86 -211 216 -217 218 0
211 -216 0
-216 -218 0
86 -216 0
-216 217 0
217 -712 714 0
-217 712 0
-217 -714 0
-109 218 -306 0
-218 306 0
109 -218 0
-190 -197 219 756 0
55 -190 -197 219 0
197 -219 0
190 -219 0
-55 -219 -756 0
-14 -18 -20 220 221 0
20 -220 0
-220 -221 0
14 -220 0
18 -220 0
15 17 221 0
-15 -221 0
-17 -221 0
10 222 -223 0
8 222 -223 0
11 222 -223 0
-222 223 0
-8 -10 -11 -222 0
43 -198 223 -224 -227 0
-43 -223 0
-223 227 0
-223 224 0
198 -223 0
224 225 -226 -758 0
224 225 -226 -759 0
-224 226 0
-224 -225 0
-224 758 759 0
-55 225 -756 0
-225 756 0
55 -225 0
-13 226 -760 0
-13 226 761 0
13 -226 0
-226 760 -761 0
-36 37 227 0
30 37 227 0
-37 -227 0
-30 36 -227 0
228 229 -235 0
228 -229 235 0
-228 -229 -235 0
-228 229 235 0
-197 229 230 756 0
-197 229 230 -234 0
197 -229 0
-229 -230 0
-229 234 -756 0
196 230 233 0
230 231 233 0
-196 230 231 756 0
-196 -230 -231 0
196 -230 -233 0
-230 -233 -756 0
-29 231 -1104 0
-29 43 231 232 0
29 -231 0
-231 -232 1104 0
-43 -231 1104 0
232 767 1141 0
-232 -767 0
-232 -1141 0
233 875 -1142 0
-231 233 -875 0
231 -233 -875 0
-233 875 1142 0
55 -233 234 0
-55 -234 0
233 -234 0
-211 235 236 306 0
-211 235 236 -240 0
211 -235 0
-235 -236 0
-235 240 -306 0
210 236 239 0
236 237 239 0
-210 236 237 306 0
-210 -236 -237 0
210 -236 -239 0
-236 -239 -306 0
-86 237 -712 0
82 -86 237 238 0
86 -237 0
-237 -238 712 0
-82 -237 712 0
238 317 749 0
-238 -317 0
-238 -749 0
239 425 -750 0
-237 239 -425 0
237 -239 -425 0
-239 425 750 0
109 -239 240 0
-109 -240 0
239 -240 0
241 242 251 -260 -270 0
241 -242 -251 -260 -270 0
241 242 251 260 270 0
241 -242 -251 260 270 0
-241 242 -251 0
-241 -242 251 0
-241 260 -270 0
-241 -260 270 0
-65 242 -243 0
-65 242 -250 0
-65 242 -249 0
65 -242 0
-242 243 249 250 0
243 246 -247 0
-108 243 244 -247 0
-243 247 0
-243 -244 -246 0
108 -243 -246 0
-103 244 744 0
103 244 245 0
-103 -244 -744 0
103 -244 -245 0
-81 245 -743 0
-245 743 0
81 -245 0
110 246 -306 0
246 -306 745 0
-246 306 0
-110 -246 -745 0
-179 247 248 0
179 -247 0
-247 -248 0
-244 248 306 -481 0
245 248 306 481 0
-248 -306 0
244 -248 -481 0
-245 -248 481 0
-75 -112 249 -747 0
-249 747 0
75 -249 0
112 -249 0
-77 -184 250 -746 0
-250 746 0
77 -250 0
184 -250 0
6 -13 251 252 -1017 0
13 -251 0
-251 -252 0
-251 1017 0
-6 -251 0
166 252 -258 0
252 -253 -258 0
252 -257 -258 0
-252 258 0
-166 -252 253 257 0
253 254 -756 1137 0
54 253 254 -756 0
-253 756 0
-253 -254 0
-54 -253 -1137 0
-53 254 255 0
53 -254 0
-254 -255 0
-48 255 1136 0
48 255 256 0
-48 -255 -1136 0
48 -255 -256 0
-28 256 -1135 0
-256 1135 0
28 -256 0
-255 257 756 -931 0
256 257 756 931 0
-257 -756 0
255 -257 -931 0
-256 -257 931 0
22 258 259 0
57 258 259 0
258 259 1139 0
-258 -259 0
-22 -57 -258 -1139 0
-24 -171 259 -1138 0
-259 1138 0
24 -259 0
171 -259 0
66 -214 260 261 269 0
214 -260 0
-260 -269 0
-66 -260 0
-260 -261 0
261 263 502 0
77 261 262 263 0
-261 -263 0
-261 -262 -502 0
-77 -261 -502 0
-75 262 509 -742 0
75 -262 0
-262 742 0
-262 -509 0
104 263 264 268 0
104 263 264 -267 0
-104 -263 0
-263 -264 0
-263 267 -268 0
264 -266 306 -481 0
264 265 306 481 0
-264 -306 0
-264 266 -481 0
-264 -265 481 0
-81 265 -310 0
-265 310 0
81 -265 0
-103 266 739 0
103 265 266 0
-103 -266 -739 0
103 -265 -266 0
-108 266 267 0
108 -267 0
-266 -267 0
110 268 -306 0
268 -306 740 0
-268 306 0
-110 -268 -740 0
-180 -181 262 269 0
-180 262 269 741 0
180 -269 0
-262 -269 0
181 -269 -741 0
-5 167 270 271 0
-5 270 271 279 0
5 -270 0
-270 -271 0
-167 -270 -279 0
271 273 952 0
24 271 272 273 0
-271 -273 0
-271 -272 -952 0
-24 -271 -952 0
-22 272 959 -1134 0
22 -272 0
-272 1134 0
-272 -959 0
49 273 274 278 0
49 273 274 -277 0
-49 -273 0
-273 -274 0
-273 277 -278 0
274 -276 756 -931 0
274 275 756 931 0
-274 -756 0
-274 276 -931 0
-274 -275 931 0
-28 275 -760 0
-275 760 0
28 -275 0
-48 276 1131 0
48 275 276 0
-48 -276 -1131 0
48 -275 -276 0
-53 276 277 0
53 -277 0
-276 -277 0
54 278 -756 0
278 -756 1132 0
-278 756 0
-54 -278 -1132 0
-168 272 279 0
272 279 1133 0
-272 -279 0
168 -279 -1133 0
129 280 281 291 0
-119 280 -281 -291 0
-119 280 281 291 0
129 280 -281 -291 0
-280 281 -291 0
-280 -281 291 0
119 -129 -280 0
-5 281 -282 0
-5 281 290 0
5 -281 0
-281 282 -290 0
22 -57 282 -283 0
-22 -57 282 -1116 0
57 -282 0
22 -282 283 0
-22 -282 1116 0
-24 283 -1115 0
24 283 -284 0
-24 -283 1115 0
24 -283 284 0
49 284 285 289 0
49 284 285 -288 0
-49 -284 0
-284 -285 0
-284 288 -289 0
285 286 -756 1114 0
54 285 286 -756 0
-285 756 0
-285 -286 0
-54 -285 -1114 0
-53 286 287 0
53 -286 0
-286 -287 0
28 48 287 0
-48 287 1113 0
48 287 761 0
-48 -287 -1113 0
-28 48 -287 -761 0
-28 48 288 -761 0
-28 288 -761 931 0
28 -288 0
-288 761 0
-48 -288 -931 0
289 756 1113 0
289 756 931 0
48 289 756 0
-289 -756 0
-48 -289 -931 -1113 0
-59 284 290 0
283 290 -952 0
-59 290 -952 0
283 284 290 0
59 -283 -290 0
-284 -290 952 0
-65 291 -292 0
-65 291 300 0
65 -291 0
-291 292 -300 0
75 -112 292 -293 0
-75 -112 292 -724 0
112 -292 0
75 -292 293 0
-75 -292 724 0
-77 293 -723 0
77 293 -294 0
-77 -293 723 0
77 -293 294 0
104 294 295 299 0
104 294 295 -298 0
-104 -294 0
-294 -295 0
-294 298 -299 0
295 296 -306 722 0
110 295 296 -306 0
-295 306 0
-295 -296 0
-110 -295 -722 0
-108 296 297 0
108 -296 0
-296 -297 0
81 103 297 0
-103 297 721 0
103 297 311 0
-103 -297 -721 0
-81 103 -297 -311 0
-81 103 298 -311 0
-81 298 -311 481 0
81 -298 0
-298 311 0
-103 -298 -481 0
299 306 721 0
299 306 481 0
103 299 306 0
-299 -306 0
-103 -299 -481 -721 0
-114 294 300 0
293 300 -502 0
-114 300 -502 0
293 294 300 0
114 -293 -300 0
-294 -300 502 0
-68 -70 -71 301 0
68 -301 0
70 -301 0
71 -301 0
82 87 302 303 -304 0
-302 304 0
-302 -303 0
-82 -302 0
-87 -302 0
94 98 101 303 0
-94 -303 0
-101 -303 0
-98 -303 0
-72 -213 218 304 -305 0
-304 305 0
72 -304 0
213 -304 0
-218 -304 0
305 -309 -310 0
305 -308 311 0
305 -308 -310 0
305 -309 311 0
-305 310 -311 0
-305 308 309 0
1 2 0
-1 -2 0
1148 0

